DIMACS2
20 159 231 25 63 41 91 72 93 97 123 282 227 304 196 265 191 101 46 201 12
p edge 320 2129
e 0 147 1.0
e 1 228 4.0
e 1 0 2.0
e 1 142 1.0
e 1 207 2.0
e 2 57 2.0
e 2 280 1.0
e 3 74 1.0
e 3 235 4.0
e 3 249 5.0
e 3 309 1.0
e 3 186 1.0
e 3 157 2.0
e 3 177 2.0
e 3 35 1.0
e 4 93 14.0
e 4 159 6.0
e 4 76 8.0
e 4 262 8.0
e 4 154 3.0
e 4 81 5.0
e 4 79 10.0
e 4 132 2.0
e 4 249 3.0
e 4 32 11.0
e 4 28 4.0
e 4 282 10.0
e 4 259 6.0
e 4 253 7.0
e 4 272 10.0
e 4 102 4.0
e 4 263 1.0
e 4 177 2.0
e 4 59 12.0
e 4 300 2.0
e 5 179 1.0
e 6 175 1.0
e 6 261 1.0
e 7 313 1.0
e 7 193 2.0
e 7 15 9.0
e 7 293 1.0
e 7 62 5.0
e 7 66 2.0
e 7 257 2.0
e 7 317 3.0
e 7 228 7.0
e 7 115 3.0
e 7 60 5.0
e 7 177 1.0
e 7 264 11.0
e 7 263 2.0
e 7 39 4.0
e 7 194 1.0
e 7 277 6.0
e 7 37 1.0
e 7 35 8.0
e 7 130 7.0
e 7 38 9.0
e 8 109 1.0
e 8 138 1.0
e 9 242 2.0
e 9 1 3.0
e 9 63 39.0
e 9 292 1.0
e 9 11 1.0
e 10 106 1.0
e 11 71 1.0
e 11 222 2.0
e 11 299 2.0
e 11 122 1.0
e 12 314 34.0
e 12 266 7.0
e 12 233 27.0
e 12 85 38.0
e 12 73 2.0
e 12 170 13.0
e 12 263 47.0
e 12 86 15.0
e 12 302 22.0
e 12 297 21.0
e 12 241 38.0
e 12 180 32.0
e 12 145 41.0
e 12 243 25.0
e 12 199 10.0
e 12 112 33.0
e 12 26 41.0
e 12 140 15.0
e 12 56 6.0
e 12 201 49.0
e 12 269 8.0
e 12 252 40.0
e 12 65 43.0
e 12 294 10.0
e 12 104 11.0
e 12 260 16.0
e 12 268 46.0
e 12 298 18.0
e 12 102 46.0
e 12 202 33.0
e 12 60 34.0
e 12 87 15.0
e 12 183 41.0
e 12 277 32.0
e 12 253 1.0
e 12 200 30.0
e 12 27 5.0
e 12 264 27.0
e 12 47 43.0
e 12 142 32.0
e 12 223 43.0
e 12 13 39.0
e 12 215 34.0
e 12 176 49.0
e 12 231 20.0
e 12 299 43.0
e 12 194 42.0
e 12 54 41.0
e 12 247 26.0
e 12 28 27.0
e 12 93 2.0
e 12 265 49.0
e 12 153 6.0
e 12 300 8.0
e 12 49 18.0
e 12 221 35.0
e 12 173 37.0
e 12 165 15.0
e 12 222 38.0
e 12 35 16.0
e 12 188 32.0
e 12 68 36.0
e 12 22 30.0
e 12 250 12.0
e 12 275 20.0
e 12 19 7.0
e 12 254 33.0
e 12 125 22.0
e 12 55 28.0
e 12 235 17.0
e 12 160 26.0
e 12 101 6.0
e 12 301 48.0
e 12 103 16.0
e 12 122 33.0
e 12 20 34.0
e 12 66 41.0
e 12 50 2.0
e 12 127 10.0
e 12 271 27.0
e 13 75 1.0
e 13 148 1.0
e 14 3 4.0
e 14 179 1.0
e 14 275 1.0
e 14 15 2.0
e 15 200 1.0
e 16 127 1.0
e 17 156 2.0
e 17 300 1.0
e 17 180 1.0
e 17 187 9.0
e 18 44 1.0
e 18 122 2.0
e 18 257 1.0
e 18 95 2.0
e 19 270 2.0
e 19 271 1.0
e 20 214 1.0
e 20 224 1.0
e 21 16 1.0
e 21 147 1.0
e 22 183 5.0
e 23 153 2.0
e 23 289 1.0
e 23 14 2.0
e 23 92 1.0
e 23 305 2.0
e 23 75 1.0
e 24 54 1.0
e 24 4 7.0
e 25 308 31.0
e 25 145 12.0
e 25 160 28.0
e 25 288 45.0
e 25 98 5.0
e 25 131 15.0
e 25 105 24.0
e 25 53 39.0
e 25 173 38.0
e 25 199 21.0
e 25 313 9.0
e 25 192 29.0
e 25 295 12.0
e 25 31 39.0
e 25 138 19.0
e 25 202 21.0
e 25 276 34.0
e 25 223 45.0
e 25 151 48.0
e 25 317 20.0
e 25 263 38.0
e 25 79 37.0
e 25 80 13.0
e 25 55 6.0
e 25 296 36.0
e 25 231 5.0
e 25 10 9.0
e 25 210 12.0
e 25 141 22.0
e 25 17 29.0
e 25 225 10.0
e 25 304 5.0
e 25 287 24.0
e 25 132 31.0
e 25 245 3.0
e 25 121 34.0
e 25 271 26.0
e 25 60 31.0
e 25 165 26.0
e 25 88 41.0
e 25 72 9.0
e 25 247 12.0
e 25 153 12.0
e 25 195 33.0
e 25 212 6.0
e 25 139 20.0
e 25 209 13.0
e 25 81 13.0
e 25 46 26.0
e 25 183 22.0
e 25 236 35.0
e 25 175 14.0
e 25 172 6.0
e 25 184 18.0
e 25 142 22.0
e 25 62 11.0
e 25 16 4.0
e 25 222 19.0
e 25 252 36.0
e 25 196 14.0
e 25 68 33.0
e 25 20 16.0
e 25 156 20.0
e 25 110 19.0
e 25 174 4.0
e 25 193 48.0
e 25 66 41.0
e 25 102 19.0
e 25 188 8.0
e 25 32 12.0
e 25 227 3.0
e 25 108 14.0
e 25 266 9.0
e 25 201 31.0
e 25 170 10.0
e 25 297 38.0
e 25 185 15.0
e 25 281 16.0
e 25 273 4.0
e 25 146 28.0
e 26 220 1.0
e 27 289 2.0
e 28 317 1.0
e 29 41 30.0
e 29 203 2.0
e 29 214 1.0
e 29 192 1.0
e 30 97 22.0
e 30 219 4.0
e 30 206 3.0
e 30 66 1.0
e 30 53 2.0
e 30 233 6.0
e 30 81 5.0
e 30 46 40.0
e 30 37 2.0
e 30 207 5.0
e 31 40 1.0
e 32 111 1.0
e 33 85 1.0
e 34 82 1.0
e 34 124 1.0
e 35 181 1.0
e 36 66 1.0
e 36 293 1.0
e 37 51 2.0
e 38 155 2.0
e 38 303 1.0
e 38 272 1.0
e 39 251 1.0
e 39 104 2.0
e 40 264 1.0
e 40 86 1.0
e 41 25 24.0
e 41 64 45.0
e 41 289 45.0
e 41 67 8.0
e 41 11 3.0
e 41 203 17.0
e 41 223 17.0
e 41 92 17.0
e 41 256 43.0
e 41 69 43.0
e 41 24 14.0
e 41 232 12.0
e 41 182 8.0
e 41 302 28.0
e 41 250 38.0
e 41 166 16.0
e 41 58 24.0
e 41 156 7.0
e 41 316 48.0
e 41 56 35.0
e 41 127 33.0
e 41 267 7.0
e 41 233 47.0
e 41 117 11.0
e 41 318 47.0
e 41 0 37.0
e 41 104 42.0
e 41 65 47.0
e 41 167 36.0
e 41 105 16.0
e 41 251 46.0
e 41 32 15.0
e 41 242 30.0
e 41 252 30.0
e 41 186 22.0
e 41 300 47.0
e 41 132 25.0
e 41 128 7.0
e 41 312 38.0
e 41 80 29.0
e 41 234 44.0
e 41 48 35.0
e 41 99 31.0
e 41 260 22.0
e 41 201 45.0
e 41 183 22.0
e 41 26 17.0
e 41 314 21.0
e 41 118 25.0
e 41 317 37.0
e 41 301 10.0
e 41 108 47.0
e 41 168 35.0
e 41 122 6.0
e 41 253 46.0
e 41 173 49.0
e 41 226 13.0
e 41 296 40.0
e 41 239 48.0
e 41 209 19.0
e 41 124 5.0
e 41 298 23.0
e 41 254 2.0
e 41 198 38.0
e 41 74 24.0
e 41 171 42.0
e 41 258 36.0
e 41 205 19.0
e 41 190 29.0
e 41 1 18.0
e 41 235 48.0
e 41 191 42.0
e 41 116 28.0
e 41 163 37.0
e 41 255 12.0
e 41 138 29.0
e 41 220 7.0
e 41 119 8.0
e 42 127 2.0
e 43 5 1.0
e 43 133 1.0
e 44 214 1.0
e 45 157 3.0
e 45 192 2.0
e 46 115 43.0
e 46 178 23.0
e 46 117 12.0
e 46 301 15.0
e 46 291 11.0
e 46 129 29.0
e 46 35 14.0
e 46 59 47.0
e 46 99 16.0
e 46 188 41.0
e 46 310 4.0
e 46 125 25.0
e 46 225 31.0
e 46 240 34.0
e 46 243 19.0
e 46 142 27.0
e 46 244 32.0
e 46 237 19.0
e 46 11 22.0
e 46 38 45.0
e 46 262 46.0
e 46 197 23.0
e 46 250 20.0
e 46 4 22.0
e 46 311 49.0
e 46 314 44.0
e 46 76 5.0
e 46 185 10.0
e 46 58 36.0
e 46 118 14.0
e 46 216 48.0
e 46 257 6.0
e 46 12 13.0
e 46 231 45.0
e 46 170 36.0
e 46 29 31.0
e 46 149 17.0
e 46 54 16.0
e 46 196 19.0
e 46 47 36.0
e 46 79 1.0
e 46 287 24.0
e 46 13 21.0
e 46 275 39.0
e 46 308 39.0
e 46 292 48.0
e 46 203 38.0
e 46 37 7.0
e 46 209 33.0
e 46 246 36.0
e 46 119 21.0
e 46 251 4.0
e 46 222 39.0
e 46 86 38.0
e 46 67 40.0
e 46 112 33.0
e 46 288 35.0
e 46 91 23.0
e 46 73 39.0
e 46 92 48.0
e 46 60 36.0
e 46 208 18.0
e 46 98 28.0
e 46 5 34.0
e 46 189 42.0
e 46 61 14.0
e 46 28 40.0
e 46 62 37.0
e 46 100 19.0
e 46 238 35.0
e 46 236 9.0
e 46 89 5.0
e 46 57 21.0
e 46 134 38.0
e 46 10 17.0
e 46 223 40.0
e 46 215 49.0
e 46 241 43.0
e 46 63 30.0
e 47 80 1.0
e 48 208 1.0
e 48 297 1.0
e 48 199 2.0
e 48 272 2.0
e 48 178 1.0
e 49 163 1.0
e 50 80 1.0
e 51 52 1.0
e 51 303 1.0
e 51 184 1.0
e 51 47 1.0
e 52 163 1.0
e 53 153 1.0
e 53 62 1.0
e 53 198 1.0
e 53 208 1.0
e 54 80 1.0
e 55 35 1.0
e 55 315 2.0
e 55 242 2.0
e 55 159 5.0
e 56 305 4.0
e 56 149 5.0
e 56 312 3.0
e 56 243 3.0
e 56 45 1.0
e 56 261 4.0
e 56 171 5.0
e 56 234 1.0
e 56 179 1.0
e 57 212 1.0
e 57 280 1.0
e 57 167 1.0
e 57 193 1.0
e 58 273 1.0
e 58 212 1.0
e 58 199 1.0
e 58 55 2.0
e 59 259 1.0
e 60 310 1.0
e 61 175 2.0
e 61 132 1.0
e 61 220 2.0
e 61 142 2.0
e 61 65 1.0
e 62 305 2.0
e 62 186 4.0
e 62 112 1.0
e 62 33 5.0
e 62 209 5.0
e 62 215 2.0
e 63 125 31.0
e 63 274 20.0
e 63 316 49.0
e 63 126 27.0
e 63 265 24.0
e 63 308 7.0
e 63 99 29.0
e 63 12 44.0
e 63 62 11.0
e 63 27 3.0
e 63 140 10.0
e 63 264 6.0
e 63 35 22.0
e 63 108 49.0
e 63 98 15.0
e 63 118 43.0
e 63 236 22.0
e 63 15 30.0
e 63 64 21.0
e 63 112 36.0
e 63 83 46.0
e 63 143 37.0
e 63 159 37.0
e 63 311 45.0
e 63 37 8.0
e 63 206 35.0
e 63 119 29.0
e 63 244 2.0
e 63 87 48.0
e 63 66 40.0
e 63 194 36.0
e 63 245 21.0
e 63 179 8.0
e 63 160 14.0
e 63 223 18.0
e 63 13 15.0
e 63 297 38.0
e 63 93 8.0
e 63 317 4.0
e 63 2 41.0
e 63 211 19.0
e 63 267 2.0
e 63 60 17.0
e 63 127 34.0
e 63 131 42.0
e 63 180 2.0
e 63 59 25.0
e 63 80 2.0
e 63 275 32.0
e 63 153 14.0
e 63 148 13.0
e 63 216 34.0
e 63 155 13.0
e 63 106 38.0
e 63 24 43.0
e 63 11 32.0
e 63 157 30.0
e 63 86 16.0
e 63 289 1.0
e 63 227 48.0
e 63 105 33.0
e 63 309 32.0
e 63 1 11.0
e 63 210 12.0
e 63 79 30.0
e 63 3 27.0
e 63 161 10.0
e 63 34 6.0
e 63 116 32.0
e 63 61 2.0
e 63 65 44.0
e 63 233 45.0
e 63 300 4.0
e 63 45 41.0
e 63 175 49.0
e 63 237 27.0
e 63 149 33.0
e 63 67 10.0
e 64 108 2.0
e 64 253 2.0
e 64 42 1.0
e 64 282 49.0
e 65 265 2.0
e 66 113 1.0
e 67 143 1.0
e 68 199 2.0
e 68 130 11.0
e 68 118 1.0
e 69 293 1.0
e 69 224 1.0
e 70 12 40.0
e 71 118 1.0
e 72 77 1.0
e 72 276 36.0
e 72 226 44.0
e 72 29 19.0
e 72 164 4.0
e 72 169 37.0
e 72 157 27.0
e 72 0 27.0
e 72 240 19.0
e 72 262 8.0
e 72 163 28.0
e 72 189 19.0
e 72 108 44.0
e 72 195 10.0
e 72 253 3.0
e 72 315 18.0
e 72 187 21.0
e 72 165 31.0
e 72 123 36.0
e 72 200 20.0
e 72 148 43.0
e 72 102 5.0
e 72 222 30.0
e 72 8 33.0
e 72 18 19.0
e 72 104 32.0
e 72 244 33.0
e 72 245 35.0
e 72 220 9.0
e 72 217 44.0
e 72 275 18.0
e 72 166 49.0
e 72 111 22.0
e 72 105 6.0
e 72 290 49.0
e 72 66 7.0
e 72 117 10.0
e 72 79 21.0
e 72 2 8.0
e 72 250 1.0
e 72 80 16.0
e 72 280 37.0
e 72 31 43.0
e 72 135 46.0
e 72 267 7.0
e 72 241 12.0
e 72 146 29.0
e 72 317 6.0
e 72 271 41.0
e 72 160 12.0
e 72 196 34.0
e 72 197 31.0
e 72 318 29.0
e 72 24 16.0
e 72 3 48.0
e 72 36 27.0
e 72 7 31.0
e 72 73 1.0
e 72 302 26.0
e 72 181 9.0
e 72 238 8.0
e 72 175 38.0
e 72 137 44.0
e 72 291 44.0
e 72 170 5.0
e 72 98 48.0
e 72 46 17.0
e 72 309 19.0
e 72 61 22.0
e 72 81 44.0
e 72 255 13.0
e 72 159 10.0
e 72 198 38.0
e 72 121 14.0
e 72 58 15.0
e 72 242 15.0
e 72 13 37.0
e 72 301 26.0
e 72 39 19.0
e 72 5 33.0
e 73 291 1.0
e 74 70 1.0
e 75 37 3.0
e 75 300 2.0
e 75 77 1.0
e 75 221 1.0
e 76 307 1.0
e 77 16 2.0
e 77 56 2.0
e 77 74 1.0
e 77 47 1.0
e 78 179 1.0
e 78 246 1.0
e 79 8 1.0
e 80 220 1.0
e 81 295 1.0
e 82 285 1.0
e 83 285 1.0
e 83 156 1.0
e 84 293 2.0
e 84 93 8.0
e 84 200 1.0
e 84 85 1.0
e 84 46 9.0
e 85 140 1.0
e 86 147 1.0
e 87 192 2.0
e 88 80 1.0
e 88 110 1.0
e 88 123 4.0
e 88 231 45.0
e 89 51 1.0
e 89 192 2.0
e 90 182 2.0
e 90 1 1.0
e 90 218 2.0
e 90 279 2.0
e 90 221 1.0
e 90 113 1.0
e 91 119 25.0
e 91 153 36.0
e 91 204 3.0
e 91 293 41.0
e 91 304 41.0
e 91 317 22.0
e 91 147 29.0
e 91 255 6.0
e 91 14 12.0
e 91 97 5.0
e 91 48 16.0
e 91 132 23.0
e 91 218 25.0
e 91 187 40.0
e 91 236 11.0
e 91 241 6.0
e 91 37 4.0
e 91 173 45.0
e 91 168 14.0
e 91 196 27.0
e 91 263 11.0
e 91 93 41.0
e 91 116 29.0
e 91 15 3.0
e 91 262 43.0
e 91 264 23.0
e 91 242 12.0
e 91 215 34.0
e 91 131 24.0
e 91 8 34.0
e 91 185 8.0
e 91 182 49.0
e 91 29 25.0
e 91 62 36.0
e 91 174 22.0
e 91 17 5.0
e 91 273 20.0
e 91 285 22.0
e 91 16 45.0
e 91 276 16.0
e 91 283 8.0
e 91 221 12.0
e 91 219 29.0
e 91 40 30.0
e 91 192 24.0
e 91 193 14.0
e 91 162 37.0
e 91 90 42.0
e 91 303 38.0
e 91 267 38.0
e 91 254 6.0
e 91 56 11.0
e 91 178 19.0
e 91 157 26.0
e 91 154 9.0
e 91 295 19.0
e 91 189 42.0
e 91 163 49.0
e 91 247 20.0
e 91 237 5.0
e 91 302 42.0
e 91 310 33.0
e 91 287 15.0
e 91 27 29.0
e 91 92 49.0
e 91 9 15.0
e 91 265 26.0
e 91 104 39.0
e 91 38 15.0
e 91 148 42.0
e 91 292 31.0
e 91 268 41.0
e 91 18 24.0
e 91 217 9.0
e 91 169 30.0
e 91 71 14.0
e 91 98 42.0
e 91 109 6.0
e 91 288 29.0
e 92 156 3.0
e 93 311 17.0
e 93 170 43.0
e 93 248 26.0
e 93 257 25.0
e 93 41 38.0
e 93 308 28.0
e 93 312 13.0
e 93 76 32.0
e 93 6 30.0
e 93 297 12.0
e 93 196 29.0
e 93 226 42.0
e 93 102 9.0
e 93 139 41.0
e 93 301 12.0
e 93 59 35.0
e 93 284 47.0
e 93 64 18.0
e 93 265 38.0
e 93 227 32.0
e 93 156 30.0
e 93 235 47.0
e 93 81 20.0
e 93 299 12.0
e 93 243 26.0
e 93 29 47.0
e 93 234 8.0
e 93 21 3.0
e 93 266 31.0
e 93 217 5.0
e 93 50 40.0
e 93 316 45.0
e 93 208 14.0
e 93 167 45.0
e 93 53 4.0
e 93 157 21.0
e 93 5 15.0
e 93 85 38.0
e 93 220 8.0
e 93 317 38.0
e 93 54 23.0
e 93 236 16.0
e 93 51 20.0
e 93 120 40.0
e 93 115 14.0
e 93 43 33.0
e 93 304 39.0
e 93 267 21.0
e 93 92 28.0
e 93 86 14.0
e 93 106 34.0
e 93 271 28.0
e 93 180 35.0
e 93 152 29.0
e 93 94 8.0
e 93 69 29.0
e 93 66 32.0
e 93 98 31.0
e 93 75 47.0
e 93 249 47.0
e 93 269 19.0
e 93 188 46.0
e 93 72 23.0
e 93 67 36.0
e 93 237 31.0
e 93 52 35.0
e 93 7 39.0
e 93 313 45.0
e 93 8 24.0
e 93 314 44.0
e 93 292 40.0
e 93 232 48.0
e 93 238 17.0
e 93 55 14.0
e 93 212 15.0
e 93 171 34.0
e 94 22 1.0
e 94 130 5.0
e 94 84 3.0
e 94 68 1.0
e 94 308 1.0
e 95 82 1.0
e 95 279 1.0
e 96 98 1.0
e 96 121 1.0
e 97 3 43.0
e 97 142 11.0
e 97 102 47.0
e 97 27 24.0
e 97 51 43.0
e 97 229 5.0
e 97 248 11.0
e 97 114 45.0
e 97 153 10.0
e 97 233 16.0
e 97 228 42.0
e 97 253 11.0
e 97 197 8.0
e 97 206 44.0
e 97 193 48.0
e 97 29 42.0
e 97 85 37.0
e 97 45 24.0
e 97 116 13.0
e 97 251 33.0
e 97 94 19.0
e 97 309 35.0
e 97 52 8.0
e 97 5 25.0
e 97 257 26.0
e 97 162 11.0
e 97 262 32.0
e 97 98 19.0
e 97 169 24.0
e 97 55 49.0
e 97 230 17.0
e 97 87 15.0
e 97 21 48.0
e 97 60 3.0
e 97 34 47.0
e 97 311 16.0
e 97 180 48.0
e 97 95 34.0
e 97 254 4.0
e 97 11 26.0
e 97 252 2.0
e 97 62 48.0
e 97 86 48.0
e 97 138 12.0
e 97 178 23.0
e 97 179 40.0
e 97 73 32.0
e 97 188 14.0
e 97 186 16.0
e 97 155 36.0
e 97 32 27.0
e 97 90 46.0
e 97 238 16.0
e 97 199 34.0
e 97 88 30.0
e 97 23 41.0
e 97 263 25.0
e 97 189 11.0
e 97 201 45.0
e 97 212 8.0
e 97 144 47.0
e 97 148 14.0
e 97 35 9.0
e 97 119 34.0
e 97 42 4.0
e 97 168 36.0
e 97 22 15.0
e 97 4 38.0
e 97 202 4.0
e 97 36 29.0
e 97 33 2.0
e 97 241 28.0
e 97 310 11.0
e 97 227 41.0
e 97 31 35.0
e 97 250 13.0
e 97 161 30.0
e 97 145 15.0
e 98 35 1.0
e 99 82 1.0
e 100 188 1.0
e 101 92 19.0
e 101 111 12.0
e 101 139 27.0
e 101 26 15.0
e 101 160 45.0
e 101 49 46.0
e 101 278 21.0
e 101 153 9.0
e 101 272 15.0
e 101 13 13.0
e 101 282 41.0
e 101 154 35.0
e 101 248 22.0
e 101 45 10.0
e 101 222 33.0
e 101 28 35.0
e 101 83 37.0
e 101 7 14.0
e 101 97 25.0
e 101 56 21.0
e 101 316 33.0
e 101 143 36.0
e 101 289 46.0
e 101 203 14.0
e 101 149 28.0
e 101 93 9.0
e 101 205 32.0
e 101 308 24.0
e 101 192 15.0
e 101 298 15.0
e 101 172 32.0
e 101 24 33.0
e 101 239 6.0
e 101 271 25.0
e 101 254 20.0
e 101 187 13.0
e 101 60 12.0
e 101 268 17.0
e 101 306 24.0
e 101 186 17.0
e 101 34 43.0
e 101 267 21.0
e 101 284 46.0
e 101 63 32.0
e 101 64 4.0
e 101 188 43.0
e 101 204 11.0
e 101 130 21.0
e 101 226 18.0
e 101 123 6.0
e 101 311 27.0
e 101 173 5.0
e 101 283 37.0
e 101 128 10.0
e 101 183 23.0
e 101 198 11.0
e 101 309 6.0
e 101 100 20.0
e 101 260 37.0
e 101 209 19.0
e 101 71 34.0
e 101 110 31.0
e 101 195 13.0
e 101 295 33.0
e 101 258 22.0
e 101 184 24.0
e 101 23 4.0
e 101 30 47.0
e 101 275 45.0
e 101 290 14.0
e 101 285 1.0
e 101 202 13.0
e 101 296 30.0
e 101 86 47.0
e 101 189 7.0
e 101 197 47.0
e 101 223 17.0
e 101 112 8.0
e 101 82 7.0
e 102 274 1.0
e 103 52 1.0
e 103 182 1.0
e 104 97 17.0
e 104 146 9.0
e 104 73 1.0
e 104 166 2.0
e 104 211 8.0
e 104 155 9.0
e 104 58 3.0
e 104 153 2.0
e 104 212 2.0
e 104 59 2.0
e 104 298 2.0
e 104 3 1.0
e 104 280 2.0
e 104 208 8.0
e 104 258 1.0
e 104 132 2.0
e 105 251 1.0
e 106 236 2.0
e 107 266 1.0
e 108 283 1.0
e 109 4 8.0
e 110 239 1.0
e 111 246 1.0
e 112 252 1.0
e 112 106 1.0
e 112 168 1.0
e 112 1 1.0
e 112 82 1.0
e 113 107 1.0
e 114 38 2.0
e 114 119 2.0
e 115 184 1.0
e 115 307 2.0
e 115 189 1.0
e 115 199 1.0
e 115 297 2.0
e 115 151 5.0
e 115 137 1.0
e 115 11 5.0
e 116 291 1.0
e 117 14 2.0
e 118 130 8.0
e 119 283 1.0
e 120 286 1.0
e 120 176 1.0
e 121 312 1.0
e 122 16 2.0
e 122 161 1.0
e 123 187 44.0
e 123 133 19.0
e 123 303 36.0
e 123 34 29.0
e 123 290 3.0
e 123 202 33.0
e 123 98 27.0
e 123 50 3.0
e 123 279 44.0
e 123 116 38.0
e 123 138 28.0
e 123 32 49.0
e 123 39 36.0
e 123 113 7.0
e 123 110 37.0
e 123 196 16.0
e 123 119 22.0
e 123 136 15.0
e 123 176 6.0
e 123 124 47.0
e 123 182 42.0
e 123 255 31.0
e 123 45 33.0
e 123 79 7.0
e 123 209 15.0
e 123 56 48.0
e 123 241 14.0
e 123 111 13.0
e 123 23 43.0
e 123 293 47.0
e 123 310 33.0
e 123 87 29.0
e 123 120 45.0
e 123 295 23.0
e 123 84 41.0
e 123 131 5.0
e 123 183 43.0
e 123 61 41.0
e 123 160 39.0
e 123 317 2.0
e 123 242 1.0
e 123 139 13.0
e 123 81 43.0
e 123 64 4.0
e 123 307 19.0
e 123 194 41.0
e 123 103 47.0
e 123 226 13.0
e 123 140 22.0
e 123 313 24.0
e 123 309 10.0
e 123 304 12.0
e 123 243 6.0
e 123 240 14.0
e 123 301 8.0
e 123 158 19.0
e 123 228 32.0
e 123 201 28.0
e 123 300 9.0
e 123 47 45.0
e 123 296 22.0
e 123 68 24.0
e 123 266 44.0
e 123 224 11.0
e 123 306 48.0
e 123 8 13.0
e 123 106 8.0
e 123 249 13.0
e 123 35 34.0
e 123 122 29.0
e 123 288 31.0
e 123 125 13.0
e 123 184 47.0
e 123 2 16.0
e 123 152 41.0
e 123 267 46.0
e 123 191 29.0
e 124 195 1.0
e 124 68 1.0
e 125 184 1.0
e 126 10 1.0
e 127 86 2.0
e 128 3 2.0
e 128 103 1.0
e 128 132 1.0
e 128 116 1.0
e 129 35 1.0
e 129 75 1.0
e 129 258 1.0
e 129 163 1.0
e 129 166 1.0
e 130 123 18.0
e 130 87 1.0
e 130 57 11.0
e 130 255 2.0
e 130 182 4.0
e 130 119 7.0
e 130 0 11.0
e 130 241 4.0
e 130 88 2.0
e 130 185 6.0
e 130 268 10.0
e 130 297 9.0
e 130 103 7.0
e 130 288 10.0
e 130 237 12.0
e 130 15 1.0
e 131 197 2.0
e 132 10 1.0
e 133 54 1.0
e 134 126 1.0
e 134 277 1.0
e 135 113 1.0
e 135 134 1.0
e 136 184 1.0
e 136 89 1.0
e 137 78 1.0
e 138 92 1.0
e 139 207 1.0
e 140 239 1.0
e 140 130 9.0
e 141 222 1.0
e 141 187 7.0
e 142 153 2.0
e 143 310 1.0
e 144 211 1.0
e 145 148 1.0
e 146 142 1.0
e 147 279 1.0
e 148 200 2.0
e 149 24 3.0
e 149 264 1.0
e 150 71 1.0
e 150 298 1.0
e 151 100 1.0
e 152 65 2.0
e 153 18 1.0
e 154 107 1.0
e 154 301 1.0
e 154 146 2.0
e 155 30 1.0
e 156 21 1.0
e 157 183 2.0
e 158 240 1.0
e 158 287 1.0
e 159 91 20.0
e 159 100 20.0
e 159 64 13.0
e 159 167 3.0
e 159 308 42.0
e 159 122 5.0
e 159 260 41.0
e 159 196 38.0
e 159 170 14.0
e 159 77 23.0
e 159 92 48.0
e 159 216 27.0
e 159 31 10.0
e 159 142 49.0
e 159 173 17.0
e 159 210 35.0
e 159 182 23.0
e 159 157 1.0
e 159 194 31.0
e 159 310 20.0
e 159 259 26.0
e 159 97 33.0
e 159 277 21.0
e 159 130 14.0
e 159 235 7.0
e 159 6 17.0
e 159 240 3.0
e 159 295 12.0
e 159 220 30.0
e 159 18 2.0
e 159 185 45.0
e 159 136 5.0
e 159 293 7.0
e 159 123 34.0
e 159 124 45.0
e 159 168 14.0
e 159 281 44.0
e 159 183 33.0
e 159 39 29.0
e 159 198 1.0
e 159 174 42.0
e 159 190 48.0
e 159 247 11.0
e 159 192 5.0
e 159 34 9.0
e 159 107 43.0
e 159 57 25.0
e 159 101 21.0
e 159 28 48.0
e 159 282 7.0
e 159 9 2.0
e 159 36 4.0
e 159 50 26.0
e 159 296 11.0
e 159 49 2.0
e 159 169 24.0
e 159 74 13.0
e 159 290 10.0
e 159 147 49.0
e 159 211 24.0
e 159 255 45.0
e 159 7 35.0
e 159 171 2.0
e 159 22 34.0
e 159 137 12.0
e 159 278 40.0
e 159 305 49.0
e 159 266 45.0
e 159 306 6.0
e 159 189 20.0
e 159 151 30.0
e 159 294 38.0
e 159 297 24.0
e 159 203 31.0
e 159 300 42.0
e 159 283 32.0
e 160 276 1.0
e 161 290 1.0
e 162 245 1.0
e 163 237 1.0
e 164 105 1.0
e 164 96 1.0
e 165 34 1.0
e 166 184 1.0
e 166 74 1.0
e 167 168 1.0
e 168 27 1.0
e 169 87 1.0
e 170 44 1.0
e 171 141 1.0
e 172 269 1.0
e 172 114 1.0
e 172 221 1.0
e 172 235 2.0
e 173 113 1.0
e 174 28 1.0
e 174 142 2.0
e 174 34 1.0
e 175 270 2.0
e 176 118 1.0
e 177 273 2.0
e 178 204 1.0
e 179 33 1.0
e 180 260 2.0
e 181 289 1.0
e 182 105 1.0
e 183 282 29.0
e 183 2 1.0
e 183 211 6.0
e 184 230 1.0
e 185 286 1.0
e 186 31 1.0
e 187 182 1.0
e 187 232 7.0
e 187 183 4.0
e 187 87 9.0
e 187 160 1.0
e 187 93 43.0
e 187 150 1.0
e 187 243 6.0
e 187 120 1.0
e 187 222 11.0
e 187 157 5.0
e 187 317 7.0
e 187 49 4.0
e 187 291 4.0
e 188 181 1.0
e 189 43 1.0
e 190 81 1.0
e 191 138 34.0
e 191 195 31.0
e 191 106 32.0
e 191 196 38.0
e 191 304 44.0
e 191 94 4.0
e 191 66 45.0
e 191 171 32.0
e 191 54 37.0
e 191 84 25.0
e 191 293 41.0
e 191 237 26.0
e 191 261 8.0
e 191 128 15.0
e 191 127 27.0
e 191 17 39.0
e 191 36 18.0
e 191 110 48.0
e 191 188 24.0
e 191 194 30.0
e 191 81 47.0
e 191 155 7.0
e 191 32 2.0
e 191 268 40.0
e 191 308 37.0
e 191 166 37.0
e 191 33 26.0
e 191 34 48.0
e 191 219 27.0
e 191 4 19.0
e 191 35 22.0
e 191 137 20.0
e 191 299 8.0
e 191 212 7.0
e 191 247 25.0
e 191 12 25.0
e 191 14 40.0
e 191 19 40.0
e 191 144 25.0
e 191 149 46.0
e 191 82 16.0
e 191 150 14.0
e 191 284 9.0
e 191 276 39.0
e 191 85 32.0
e 191 95 31.0
e 191 303 18.0
e 191 7 36.0
e 191 96 14.0
e 191 109 32.0
e 191 178 38.0
e 191 132 15.0
e 191 197 1.0
e 191 97 23.0
e 191 231 43.0
e 191 282 43.0
e 191 134 46.0
e 191 55 39.0
e 191 239 6.0
e 191 133 17.0
e 191 264 24.0
e 191 167 25.0
e 191 232 27.0
e 191 56 32.0
e 191 317 8.0
e 191 140 27.0
e 191 192 8.0
e 191 98 1.0
e 191 290 41.0
e 191 180 2.0
e 191 18 42.0
e 191 294 7.0
e 191 213 9.0
e 191 26 39.0
e 191 38 18.0
e 191 173 16.0
e 191 198 39.0
e 191 59 20.0
e 191 102 18.0
e 192 280 1.0
e 193 145 1.0
e 194 42 1.0
e 195 142 1.0
e 196 276 37.0
e 196 246 26.0
e 196 84 10.0
e 196 6 46.0
e 196 209 48.0
e 196 221 32.0
e 196 0 10.0
e 196 85 41.0
e 196 30 32.0
e 196 10 21.0
e 196 92 17.0
e 196 54 28.0
e 196 170 48.0
e 196 310 44.0
e 196 289 38.0
e 196 20 29.0
e 196 76 6.0
e 196 79 1.0
e 196 187 34.0
e 196 190 33.0
e 196 70 17.0
e 196 97 42.0
e 196 226 26.0
e 196 188 12.0
e 196 151 35.0
e 196 62 35.0
e 196 3 19.0
e 196 290 12.0
e 196 26 5.0
e 196 273 20.0
e 196 284 38.0
e 196 110 47.0
e 196 75 14.0
e 196 198 6.0
e 196 104 18.0
e 196 218 13.0
e 196 143 2.0
e 196 306 42.0
e 196 65 16.0
e 196 220 31.0
e 196 130 28.0
e 196 48 12.0
e 196 317 7.0
e 196 201 14.0
e 196 199 44.0
e 196 105 32.0
e 196 222 23.0
e 196 5 37.0
e 196 194 43.0
e 196 158 41.0
e 196 9 34.0
e 196 77 14.0
e 196 4 36.0
e 196 269 18.0
e 196 316 39.0
e 196 163 30.0
e 196 119 11.0
e 196 16 19.0
e 196 51 22.0
e 196 277 32.0
e 196 83 41.0
e 196 121 1.0
e 196 89 18.0
e 196 207 2.0
e 196 302 20.0
e 196 193 3.0
e 196 28 1.0
e 196 41 16.0
e 196 214 2.0
e 196 245 7.0
e 196 147 10.0
e 197 175 2.0
e 198 88 2.0
e 199 118 1.0
e 200 144 1.0
e 201 17 46.0
e 201 71 2.0
e 201 180 2.0
e 201 26 35.0
e 201 1 1.0
e 201 173 5.0
e 201 20 29.0
e 201 144 36.0
e 201 178 39.0
e 201 203 25.0
e 201 256 24.0
e 201 233 30.0
e 201 19 44.0
e 201 206 32.0
e 201 155 9.0
e 201 273 23.0
e 201 316 10.0
e 201 221 37.0
e 201 175 40.0
e 201 307 36.0
e 201 108 24.0
e 201 257 21.0
e 201 72 7.0
e 201 39 46.0
e 201 202 42.0
e 201 250 28.0
e 201 153 28.0
e 201 317 16.0
e 201 177 21.0
e 201 90 23.0
e 201 100 38.0
e 201 81 16.0
e 201 304 16.0
e 201 80 34.0
e 201 318 28.0
e 201 37 47.0
e 201 96 8.0
e 201 126 18.0
e 201 298 19.0
e 201 246 42.0
e 201 56 32.0
e 201 179 31.0
e 201 106 6.0
e 201 229 27.0
e 201 60 12.0
e 201 242 8.0
e 201 262 21.0
e 201 42 10.0
e 201 132 43.0
e 201 251 6.0
e 201 131 15.0
e 201 43 30.0
e 201 274 29.0
e 201 189 12.0
e 201 86 47.0
e 201 21 39.0
e 201 231 49.0
e 201 319 41.0
e 201 185 35.0
e 201 3 16.0
e 201 287 6.0
e 201 167 39.0
e 201 124 19.0
e 201 15 4.0
e 201 227 23.0
e 201 139 10.0
e 201 84 12.0
e 201 184 7.0
e 201 133 3.0
e 201 171 38.0
e 201 66 48.0
e 201 228 41.0
e 201 214 21.0
e 201 134 30.0
e 202 98 1.0
e 203 180 1.0
e 204 179 1.0
e 205 159 33.0
e 205 33 1.0
e 205 287 2.0
e 205 16 2.0
e 206 318 1.0
e 207 153 1.0
e 208 101 16.0
e 209 33 1.0
e 210 62 1.0
e 211 198 2.0
e 212 73 2.0
e 213 100 1.0
e 213 207 1.0
e 214 270 1.0
e 215 17 1.0
e 215 61 1.0
e 216 179 1.0
e 217 171 2.0
e 217 250 2.0
e 218 68 1.0
e 219 254 2.0
e 219 289 2.0
e 220 274 1.0
e 221 41 48.0
e 222 38 1.0
e 223 309 1.0
e 224 124 1.0
e 225 29 1.0
e 225 26 2.0
e 225 73 3.0
e 225 74 1.0
e 226 148 2.0
e 227 54 13.0
e 227 53 22.0
e 227 193 38.0
e 227 305 28.0
e 227 78 49.0
e 227 176 10.0
e 227 168 9.0
e 227 75 49.0
e 227 55 24.0
e 227 40 21.0
e 227 278 38.0
e 227 3 6.0
e 227 79 29.0
e 227 133 43.0
e 227 70 30.0
e 227 132 32.0
e 227 1 47.0
e 227 115 23.0
e 227 196 32.0
e 227 42 17.0
e 227 152 40.0
e 227 191 41.0
e 227 244 43.0
e 227 113 39.0
e 227 8 46.0
e 227 50 5.0
e 227 129 34.0
e 227 167 10.0
e 227 101 34.0
e 227 4 37.0
e 227 165 19.0
e 227 192 11.0
e 227 229 34.0
e 227 281 27.0
e 227 263 38.0
e 227 269 9.0
e 227 279 29.0
e 227 106 32.0
e 227 224 37.0
e 227 171 45.0
e 227 156 46.0
e 227 16 29.0
e 227 180 34.0
e 227 169 37.0
e 227 264 13.0
e 227 103 34.0
e 227 181 35.0
e 227 10 4.0
e 227 272 20.0
e 227 265 28.0
e 227 5 2.0
e 227 128 22.0
e 227 295 29.0
e 227 7 10.0
e 227 275 18.0
e 227 76 11.0
e 227 170 28.0
e 227 187 45.0
e 227 308 19.0
e 227 6 22.0
e 227 217 48.0
e 227 51 30.0
e 227 32 46.0
e 227 111 9.0
e 227 143 47.0
e 227 258 6.0
e 227 84 46.0
e 227 266 45.0
e 227 216 18.0
e 227 283 32.0
e 227 90 8.0
e 227 130 25.0
e 227 207 39.0
e 227 62 46.0
e 228 227 4.0
e 228 40 5.0
e 228 313 1.0
e 228 14 4.0
e 228 235 3.0
e 228 218 1.0
e 229 298 1.0
e 230 33 3.0
e 230 235 2.0
e 230 34 1.0
e 230 180 1.0
e 231 84 13.0
e 231 266 1.0
e 231 47 5.0
e 231 129 45.0
e 231 124 30.0
e 231 204 33.0
e 231 271 23.0
e 231 149 36.0
e 231 152 5.0
e 231 136 26.0
e 231 239 49.0
e 231 90 47.0
e 231 39 8.0
e 231 175 8.0
e 231 315 41.0
e 231 311 49.0
e 231 195 15.0
e 231 123 9.0
e 231 98 26.0
e 231 31 36.0
e 231 232 46.0
e 231 32 33.0
e 231 233 49.0
e 231 21 47.0
e 231 99 47.0
e 231 45 49.0
e 231 289 43.0
e 231 202 28.0
e 231 302 24.0
e 231 179 9.0
e 231 33 42.0
e 231 104 37.0
e 231 216 15.0
e 231 44 48.0
e 231 120 44.0
e 231 219 1.0
e 231 292 21.0
e 231 78 45.0
e 231 275 33.0
e 231 89 8.0
e 231 245 24.0
e 231 82 46.0
e 231 240 32.0
e 231 19 25.0
e 231 159 28.0
e 231 121 30.0
e 231 187 35.0
e 231 226 45.0
e 231 38 19.0
e 231 50 14.0
e 231 94 24.0
e 231 293 6.0
e 231 282 38.0
e 231 22 37.0
e 231 85 15.0
e 231 272 8.0
e 231 43 36.0
e 231 91 2.0
e 231 161 47.0
e 231 0 47.0
e 231 122 21.0
e 231 86 29.0
e 231 297 11.0
e 231 241 33.0
e 231 169 23.0
e 231 225 47.0
e 231 87 42.0
e 231 49 1.0
e 231 217 27.0
e 231 54 24.0
e 231 92 9.0
e 231 9 40.0
e 231 242 43.0
e 231 2 37.0
e 231 34 20.0
e 232 27 1.0
e 233 285 1.0
e 234 227 32.0
e 234 124 2.0
e 234 13 2.0
e 235 203 1.0
e 236 41 43.0
e 237 9 1.0
e 238 235 1.0
e 239 309 1.0
e 240 187 2.0
e 241 193 1.0
e 242 49 1.0
e 243 33 1.0
e 244 42 1.0
e 245 278 1.0
e 246 5 1.0
e 247 180 2.0
e 248 119 1.0
e 249 303 1.0
e 249 91 44.0
e 250 141 2.0
e 251 289 1.0
e 252 196 9.0
e 253 307 1.0
e 254 302 2.0
e 255 200 1.0
e 256 63 31.0
e 256 184 1.0
e 256 23 3.0
e 256 94 1.0
e 256 48 3.0
e 256 121 1.0
e 256 108 1.0
e 256 130 11.0
e 256 125 4.0
e 257 14 1.0
e 258 189 1.0
e 259 312 1.0
e 260 33 1.0
e 261 309 1.0
e 261 236 1.0
e 261 235 2.0
e 262 287 1.0
e 263 283 1.0
e 264 255 1.0
e 265 54 7.0
e 265 55 29.0
e 265 291 36.0
e 265 43 34.0
e 265 289 8.0
e 265 169 43.0
e 265 101 8.0
e 265 219 49.0
e 265 127 31.0
e 265 257 11.0
e 265 247 37.0
e 265 275 23.0
e 265 32 31.0
e 265 84 15.0
e 265 56 46.0
e 265 276 7.0
e 265 46 38.0
e 265 267 26.0
e 265 290 10.0
e 265 68 42.0
e 265 141 31.0
e 265 198 11.0
e 265 178 20.0
e 265 78 48.0
e 265 211 37.0
e 265 277 42.0
e 265 278 48.0
e 265 297 18.0
e 265 147 32.0
e 265 199 1.0
e 265 70 10.0
e 265 314 5.0
e 265 279 41.0
e 265 194 30.0
e 265 10 29.0
e 265 167 6.0
e 265 235 21.0
e 265 40 25.0
e 265 41 20.0
e 265 287 15.0
e 265 175 2.0
e 265 179 26.0
e 265 298 23.0
e 265 201 17.0
e 265 204 26.0
e 265 44 32.0
e 265 64 19.0
e 265 281 30.0
e 265 220 35.0
e 265 51 28.0
e 265 310 18.0
e 265 266 28.0
e 265 33 14.0
e 265 23 26.0
e 265 45 31.0
e 265 283 10.0
e 265 190 14.0
e 265 76 31.0
e 265 268 27.0
e 265 60 45.0
e 265 285 15.0
e 265 9 30.0
e 265 124 23.0
e 265 177 29.0
e 265 52 20.0
e 265 228 44.0
e 265 149 48.0
e 265 299 45.0
e 265 107 16.0
e 265 234 48.0
e 265 300 2.0
e 265 31 6.0
e 265 99 31.0
e 265 131 17.0
e 265 2 46.0
e 266 65 1.0
e 267 18 2.0
e 268 237 1.0
e 269 2 1.0
e 270 74 1.0
e 270 43 1.0
e 270 118 1.0
e 271 307 1.0
e 272 60 1.0
e 273 302 2.0
e 274 96 1.0
e 275 33 1.0
e 276 147 1.0
e 277 246 1.0
e 278 112 5.0
e 279 0 1.0
e 280 52 1.0
e 281 184 1.0
e 281 171 1.0
e 282 70 12.0
e 282 26 16.0
e 282 201 8.0
e 282 27 4.0
e 282 135 1.0
e 282 106 22.0
e 282 150 29.0
e 282 76 14.0
e 282 214 10.0
e 282 128 30.0
e 282 304 33.0
e 282 97 8.0
e 282 24 45.0
e 282 184 20.0
e 282 180 19.0
e 282 139 25.0
e 282 5 35.0
e 282 16 19.0
e 282 157 10.0
e 282 223 49.0
e 282 295 6.0
e 282 314 2.0
e 282 133 29.0
e 282 230 49.0
e 282 300 21.0
e 282 33 44.0
e 282 232 7.0
e 282 154 44.0
e 282 117 32.0
e 282 248 48.0
e 282 278 21.0
e 282 208 8.0
e 282 31 13.0
e 282 173 38.0
e 282 207 28.0
e 282 118 22.0
e 282 272 12.0
e 282 227 4.0
e 282 81 27.0
e 282 83 9.0
e 282 47 18.0
e 282 283 6.0
e 282 50 37.0
e 282 20 45.0
e 282 71 7.0
e 282 0 17.0
e 282 277 13.0
e 282 86 42.0
e 282 58 25.0
e 282 224 5.0
e 282 51 24.0
e 282 281 16.0
e 282 141 8.0
e 282 240 2.0
e 282 213 18.0
e 282 228 6.0
e 282 308 45.0
e 282 67 49.0
e 282 266 1.0
e 282 72 16.0
e 282 273 25.0
e 282 313 22.0
e 282 275 33.0
e 282 107 13.0
e 282 212 21.0
e 282 211 28.0
e 282 73 40.0
e 282 192 36.0
e 282 140 17.0
e 282 168 34.0
e 282 190 43.0
e 282 215 5.0
e 282 216 48.0
e 282 28 14.0
e 283 45 1.0
e 284 74 2.0
e 284 310 2.0
e 285 217 1.0
e 286 26 1.0
e 287 50 1.0
e 288 36 1.0
e 289 182 1.0
e 290 1 2.0
e 291 188 1.0
e 292 308 2.0
e 293 92 2.0
e 294 150 1.0
e 295 6 1.0
e 296 182 1.0
e 297 246 1.0
e 298 127 1.0
e 299 192 1.0
e 300 181 1.0
e 301 190 1.0
e 302 146 1.0
e 303 222 1.0
e 304 125 44.0
e 304 234 39.0
e 304 71 4.0
e 304 222 18.0
e 304 8 26.0
e 304 39 20.0
e 304 40 37.0
e 304 12 42.0
e 304 283 9.0
e 304 294 43.0
e 304 87 46.0
e 304 3 24.0
e 304 209 33.0
e 304 36 36.0
e 304 161 40.0
e 304 278 32.0
e 304 67 44.0
e 304 96 25.0
e 304 1 31.0
e 304 277 19.0
e 304 38 18.0
e 304 226 5.0
e 304 279 42.0
e 304 210 5.0
e 304 14 49.0
e 304 37 6.0
e 304 88 39.0
e 304 227 33.0
e 304 285 16.0
e 304 177 32.0
e 304 232 40.0
e 304 68 5.0
e 304 228 33.0
e 304 180 8.0
e 304 172 17.0
e 304 308 4.0
e 304 240 37.0
e 304 220 38.0
e 304 272 27.0
e 304 305 47.0
e 304 18 34.0
e 304 284 6.0
e 304 97 37.0
e 304 235 30.0
e 304 155 17.0
e 304 28 48.0
e 304 2 26.0
e 304 223 1.0
e 304 280 38.0
e 304 64 31.0
e 304 35 18.0
e 304 208 38.0
e 304 267 24.0
e 304 92 33.0
e 304 162 48.0
e 304 254 45.0
e 304 150 26.0
e 304 76 46.0
e 304 159 21.0
e 304 178 32.0
e 304 122 37.0
e 304 260 10.0
e 304 179 19.0
e 304 229 6.0
e 304 19 27.0
e 304 253 16.0
e 304 233 15.0
e 304 27 47.0
e 304 30 8.0
e 304 9 14.0
e 304 4 26.0
e 304 98 7.0
e 304 15 38.0
e 304 230 36.0
e 305 201 40.0
e 306 233 1.0
e 307 138 2.0
e 308 100 2.0
e 309 141 2.0
e 310 219 1.0
e 311 162 2.0
e 312 253 1.0
e 313 196 26.0
e 313 296 3.0
e 313 68 4.0
e 313 236 1.0
e 313 165 5.0
e 314 11 1.0
e 315 54 1.0
e 316 105 1.0
e 317 143 1.0
e 318 29 1.0
e 318 283 2.0
e 319 127 1.0
e 319 204 1.0
